Total weight: 1239.7
Route 1: 0 82 53 60 61 81 54 90 65 66 56 91 94 93 96 80 0 
Route 2: 0 72 41 38 40 44 1 5 8 12 10 9 57 20 49 22 24 74 97 58 77 25 48 0 
Route 3: 0 64 83 99 52 59 75 23 21 18 19 86 87 13 11 0 
Route 4: 0 69 98 88 2 6 7 79 73 47 17 16 15 14 78 46 4 45 3 43 36 35 37 39 42 70 100 55 68 0 
Route 5: 0 71 31 29 27 28 30 32 33 26 34 50 0 
Route 6: 0 92 95 67 62 84 85 63 51 76 89 0 
